NAME : traveling-santa-2018-prime-paths.30779.tour
COMMENT : Length = 30779
COMMENT : Found by LKH [Keld Helsgaun] Sun Jun 12 19:59:26 2022
TYPE : TOUR
DIMENSION : 100
TOUR_SECTION
1
21
66
52
75
93
10
34
31
36
68
16
74
45
17
13
11
83
56
40
39
76
49
94
44
71
37
4
69
86
41
70
65
62
20
57
85
53
88
79
58
54
80
23
8
59
98
78
55
27
42
12
46
100
73
81
51
82
24
2
84
92
72
63
22
61
30
35
99
7
3
77
6
43
90
14
87
95
9
60
5
97
32
18
28
26
38
64
89
48
91
47
15
96
29
67
19
25
33
50
-1
EOF
